language Essence 1.3

letting blksize_delta be function(1 --> 7, 2 --> 7, 3 --> 7, 4 --> 7, 5 --> 7, 6 --> 7)
letting maxcars be function(1 --> 10, 2 --> 10, 3 --> 10, 4 --> 10, 5 --> 10, 6 --> 10)
letting n_cars be 274
letting n_classes be 91
letting n_options be 6
letting quantity be
        function(1 --> 3, 2 --> 3, 3 --> 3, 4 --> 3, 5 --> 3, 6 --> 3, 7 --> 3, 8 --> 3, 9 --> 3, 10 --> 3, 11 --> 3,
                 12 --> 4, 13 --> 3, 14 --> 3, 15 --> 3, 16 --> 3, 17 --> 3, 18 --> 3, 19 --> 3, 20 --> 3, 21 --> 3,
                 22 --> 3, 23 --> 3, 24 --> 3, 25 --> 3, 26 --> 3, 27 --> 3, 28 --> 3, 29 --> 3, 30 --> 3, 31 --> 3,
                 32 --> 3, 33 --> 3, 34 --> 3, 35 --> 3, 36 --> 3, 37 --> 3, 38 --> 3, 39 --> 3, 40 --> 3, 41 --> 3,
                 42 --> 3, 43 --> 3, 44 --> 3, 45 --> 3, 46 --> 3, 47 --> 3, 48 --> 3, 49 --> 3, 50 --> 3, 51 --> 3,
                 52 --> 3, 53 --> 3, 54 --> 3, 55 --> 3, 56 --> 3, 57 --> 3, 58 --> 3, 59 --> 3, 60 --> 3, 61 --> 3,
                 62 --> 3, 63 --> 3, 64 --> 3, 65 --> 3, 66 --> 3, 67 --> 3, 68 --> 3, 69 --> 3, 70 --> 3, 71 --> 3,
                 72 --> 3, 73 --> 3, 74 --> 3, 75 --> 3, 76 --> 3, 77 --> 3, 78 --> 3, 79 --> 3, 80 --> 3, 81 --> 3,
                 82 --> 3, 83 --> 3, 84 --> 3, 85 --> 3, 86 --> 3, 87 --> 3, 88 --> 3, 89 --> 3, 90 --> 3, 91 --> 3)
letting usage be
        relation((1, 3), (1, 4), (2, 5), (3, 2), (4, 3), (5, 3), (5, 4), (6, 6), (7, 2), (7, 3), (7, 4), (7, 5), (7, 6),
                 (8, 6), (9, 3), (9, 6), (10, 4), (11, 2), (11, 6), (12, 2), (12, 5), (12, 6), (13, 1), (13, 5),
                 (14, 6), (15, 3), (16, 6), (17, 1), (18, 4), (19, 5), (20, 4), (20, 6), (21, 5), (22, 1), (22, 2),
                 (22, 3), (23, 6), (24, 6), (25, 6), (26, 1), (26, 3), (26, 4), (27, 2), (27, 3), (28, 3), (29, 6),
                 (30, 3), (31, 6), (32, 1), (32, 4), (33, 6), (34, 1), (34, 2), (35, 1), (35, 2), (36, 3), (37, 4),
                 (37, 5), (38, 6), (39, 5), (40, 2), (40, 5), (41, 4), (42, 3), (42, 6), (43, 5), (44, 6), (45, 6),
                 (46, 2), (46, 3), (47, 1), (47, 2), (48, 4), (49, 5), (50, 5), (51, 6), (52, 2), (53, 6), (54, 2),
                 (55, 6), (56, 2), (56, 3), (57, 6), (58, 1), (58, 3), (58, 4), (59, 1), (59, 2), (59, 3), (59, 5),
                 (60, 6), (61, 6), (62, 6), (63, 1), (63, 5), (64, 1), (64, 2), (65, 3), (66, 3), (67, 1), (67, 6),
                 (68, 1), (68, 6), (69, 5), (70, 1), (70, 3), (70, 6), (71, 6), (72, 6), (73, 6), (74, 2), (74, 4),
                 (75, 1), (75, 2), (75, 3), (76, 2), (76, 3), (76, 5), (77, 1), (77, 2), (78, 6), (79, 2), (80, 2),
                 (80, 5), (81, 6), (82, 4), (83, 3), (84, 6), (85, 2), (85, 5), (86, 3), (87, 1), (87, 3), (88, 1),
                 (88, 5), (88, 6), (89, 5), (89, 6), (90, 5), (91, 1), (91, 2), (91, 6))
$ Visualisation for usage
$  1  3
$  1  4
$  2  5
$  3  2
$  4  3
$  5  3
$  5  4
$  6  6
$  7  2
$  7  3
$  7  4
$  7  5
$  7  6
$  8  6
$  9  3
$  9  6
$ 10  4
$ 11  2
$ 11  6
$ 12  2
$ 12  5
$ 12  6
$ 13  1
$ 13  5
$ 14  6
$ 15  3
$ 16  6
$ 17  1
$ 18  4
$ 19  5
$ 20  4
$ 20  6
$ 21  5
$ 22  1
$ 22  2
$ 22  3
$ 23  6
$ 24  6
$ 25  6
$ 26  1
$ 26  3
$ 26  4
$ 27  2
$ 27  3
$ 28  3
$ 29  6
$ 30  3
$ 31  6
$ 32  1
$ 32  4
$ 33  6
$ 34  1
$ 34  2
$ 35  1
$ 35  2
$ 36  3
$ 37  4
$ 37  5
$ 38  6
$ 39  5
$ 40  2
$ 40  5
$ 41  4
$ 42  3
$ 42  6
$ 43  5
$ 44  6
$ 45  6
$ 46  2
$ 46  3
$ 47  1
$ 47  2
$ 48  4
$ 49  5
$ 50  5
$ 51  6
$ 52  2
$ 53  6
$ 54  2
$ 55  6
$ 56  2
$ 56  3
$ 57  6
$ 58  1
$ 58  3
$ 58  4
$ 59  1
$ 59  2
$ 59  3
$ 59  5
$ 60  6
$ 61  6
$ 62  6
$ 63  1
$ 63  5
$ 64  1
$ 64  2
$ 65  3
$ 66  3
$ 67  1
$ 67  6
$ 68  1
$ 68  6
$ 69  5
$ 70  1
$ 70  3
$ 70  6
$ 71  6
$ 72  6
$ 73  6
$ 74  2
$ 74  4
$ 75  1
$ 75  2
$ 75  3
$ 76  2
$ 76  3
$ 76  5
$ 77  1
$ 77  2
$ 78  6
$ 79  2
$ 80  2
$ 80  5
$ 81  6
$ 82  4
$ 83  3
$ 84  6
$ 85  2
$ 85  5
$ 86  3
$ 87  1
$ 87  3
$ 88  1
$ 88  5
$ 88  6
$ 89  5
$ 89  6
$ 90  5
$ 91  1
$ 91  2
$ 91  6

